(set-info :source  loris-7.ddns.comp.nus.edu.sg/~project/hip/) 
;Variables declarations
(declare-fun v_bool_32_1436_primed () Int)
(declare-fun xs () Int)
(declare-fun lg () Int)
(declare-fun sm_2117 () Int)
(declare-fun sm () Int)
(declare-fun n () Int)
(declare-fun flted_10_2119 () Int)
(declare-fun qs_2121 () Int)
(declare-fun lg_2118 () Int)
(declare-fun sm_2134 () Int)
(declare-fun lg_2135 () Int)
(declare-fun next_34_2142 () Int)
(declare-fun q_2120 () Int)
(declare-fun res () Int)
(declare-fun n_2133 () Int)
(declare-fun v_node_34_2143 () Int)
(declare-fun xs_primed () Int)
;Relations declarations
;Axioms assertions
;Antecedent
(assert (> v_bool_32_1436_primed 0))
(assert (> q_2120 0))
(assert (= xs_primed xs))
(assert (= lg_2118 lg))
(assert (= sm_2117 sm))
(assert (<= sm qs_2121))
(assert (= (+ flted_10_2119 1) n))
(assert (= n_2133 flted_10_2119))
(assert (= sm_2134 qs_2121))
(assert (= lg_2135 lg_2118))
(assert (<= 1 flted_10_2119))
(assert (<= qs_2121 lg_2118))
(assert (<= 1 n_2133))
(assert (<= sm_2134 lg_2135))
(assert (= next_34_2142 q_2120))
(assert (= res xs_primed))
(assert (or (and (< v_node_34_2143 1) (= n_2133 0)) (and (<= 1 n_2133) (> v_node_34_2143 0))))
(assert (= xs_primed 1))
;Negation of Consequence
(assert (not false))
(check-sat)